Route #1: 25 138 52 134 10 39 58 29 114 60 109 81
Route #2: 86 94 104 127 145 80 146 40 108 9 78 117
Route #3: 11 77 12 119 89 112 136 76 153 2 5 57
Route #4: 102 111 132 126 1 125 139 92 137 7 28 66
Route #5: 100 51 90 82 45 83 88 47 70 43 24 141
Route #6: 113 84 30 22 155 74 79 33 48 34 18 107
Route #7: 27 19 44 46 130 124 96 156 150 8 59 149
Route #8: 140 85 144 53 123 98 154 31 50 23 133 131
Route #9: 14 120 26 128 142 62 97 87 65 103 36 68
Route #10: 95 55 115 21 135 73 106 3 42 32 93 99
Route #11: 56 37 116 105 152 67 54 6 121 4 35 110
Route #12: 17 41 38 122 15 147 118 69 16 20 75 49
Route #13: 101 151 72 129 91 63 64 13 71 148 61 143
Cost 17792.004393079464